SAT
-5 24 98 43 70 54 -46 78 87 49 -94 10 68 -45 47 -58 -21 53 50 -8 -66 83 -39 -40 -31 -41 69 -57 -76 29 2 100 -37 90 -85 30 64 79 71 1 -88 93 -14 -12 4 -96 77 -23 18 -35 -3 72 -62 52 -42 -13 -82 81 11 32 -44 -89 6 -38 84 -34 51 -56 -27 -92 48 -74 20 -91 59 22 9 16 19 -15 75 -63 -67 61 -17 -80 25 -55 -36 33 -97 73 -26 60 28 -99 -65 7 -86 95 0
